;(set-option :produce-unsat-cores true )
(set-logic ALL_SUPPORTED )
(declare-sort A$ 0 )
(declare-sort Nat$ 0 )
(declare-sort A_bool_fun$ 0 )
(declare-sort Nat_bool_fun$ 0 )
(declare-sort A_list_bool_fun$ 0 )
(declare-sort Nat_a_bool_fun_fun$ 0 )
(declare-sort A_list_list_bool_fun$ 0 )
(declare-sort Nat_nat_bool_fun_fun$ 0 )
(declare-sort Nat_a_list_bool_fun_fun$ 0 )
(declare-sort A_list$ 0)
(declare-fun nil$ ()A_list$)
(declare-fun hd$ (A_list$)A$)
(declare-fun tl$ (A_list$)A_list$)
(declare-fun cons$ (A$ A_list$ )A_list$)
(declare-sort A_list_stream$ 0)
(declare-fun shd$ (A_list_stream$)A_list$)
(declare-fun stl$ (A_list_stream$)A_list_stream$)
(declare-fun sCons$ (A_list$ A_list_stream$ )A_list_stream$)
(declare-sort A_list_list$ 0)
(declare-fun nil$a ()A_list_list$)
(declare-fun hd$a (A_list_list$)A_list$)
(declare-fun tl$a (A_list_list$)A_list_list$)
(declare-fun cons$a (A_list$ A_list_list$ )A_list_list$)
(declare-sort A_stream$ 0)
(declare-fun shd$a (A_stream$)A$)
(declare-fun stl$a (A_stream$)A_stream$)
(declare-fun sCons$a (A$ A_stream$ )A_stream$)
(declare-fun m$ ()Nat$ )
(declare-fun s$ ()A_list_stream$ )
(declare-fun x$ ()A$ )
(declare-fun y$ ()Nat$ )
(declare-fun sa$ ()A_list_stream$ )
(declare-fun nth$ (A_list$ Nat$ )A$ )
(declare-fun flat$ (A_list_stream$ )A_stream$ )
(declare-fun less$ (Nat$ Nat$ )Bool )
(declare-fun nth$a (A_list_list$ Nat$ )A_list$ )
(declare-fun size$ (A_list$ )Nat$ )
(declare-fun snth$ (A_list_stream$ Nat$ )A_list$ )
(declare-fun shift$ (A_list_list$ A_list_stream$ )A_list_stream$ )
(declare-fun size$a (A_list_list$ )Nat$ )
(declare-fun snth$a (A_stream$ Nat$ )A$ )
(declare-fun shift$a (A_list$ A_stream$ )A_stream$ )
(declare-fun fun_app$ (A_list_bool_fun$ A_list$ )Bool )
(declare-fun fun_app$a (Nat_a_list_bool_fun_fun$ Nat$ )A_list_bool_fun$ )
(declare-fun fun_app$b (A_bool_fun$ A$ )Bool )
(declare-fun fun_app$c (Nat_a_bool_fun_fun$ Nat$ )A_bool_fun$ )
(declare-fun fun_app$d (A_list_list_bool_fun$ A_list_list$ )Bool )
(declare-fun fun_app$e (Nat_bool_fun$ Nat$ )Bool )
(declare-fun fun_app$f (Nat_nat_bool_fun_fun$ Nat$ )Nat_bool_fun$ )
(assert (! (not (exists ((?v0 Nat$ )(?v1 Nat$ ))(and (= x$ (nth$ (snth$ sa$ ?v0 )?v1 ))(less$ ?v1 (size$ (snth$ sa$ ?v0 )))))):named a0 ))
(assert (! (exists ((?v0 Nat$ )(?v1 Nat$ ))(and (= x$ (nth$ (snth$ (stl$ sa$ )?v0 )?v1 ))(less$ ?v1 (size$ (snth$ (stl$ sa$ )?v0 ))))):named a1 ))
(assert (! (forall ((?v0 A_list_list$ )(?v1 A_list_list$ ))(= (= ?v0 ?v1 )(and (= (size$a ?v0 )(size$a ?v1 ))(forall ((?v2 Nat$ ))(=> (less$ ?v2 (size$a ?v0 ))(= (nth$a ?v0 ?v2 )(nth$a ?v1 ?v2 ))))))):named a2 ))
(assert (! (forall ((?v0 A_list$ )(?v1 A_list$ ))(= (= ?v0 ?v1 )(and (= (size$ ?v0 )(size$ ?v1 ))(forall ((?v2 Nat$ ))(=> (less$ ?v2 (size$ ?v0 ))(= (nth$ ?v0 ?v2 )(nth$ ?v1 ?v2 ))))))):named a3 ))
(assert (! (forall ((?v0 Nat$ )(?v1 Nat_a_list_bool_fun_fun$ ))(= (forall ((?v2 Nat$ ))(=> (less$ ?v2 ?v0 )(exists ((?v3 A_list$ ))(fun_app$ (fun_app$a ?v1 ?v2 )?v3 ))))(exists ((?v2 A_list_list$ ))(and (= (size$a ?v2 )?v0 )(forall ((?v3 Nat$ ))(=> (less$ ?v3 ?v0 )(fun_app$ (fun_app$a ?v1 ?v3 )(nth$a ?v2 ?v3 )))))))):named a4 ))
(assert (! (forall ((?v0 Nat$ )(?v1 Nat_a_bool_fun_fun$ ))(= (forall ((?v2 Nat$ ))(=> (less$ ?v2 ?v0 )(exists ((?v3 A$ ))(fun_app$b (fun_app$c ?v1 ?v2 )?v3 ))))(exists ((?v2 A_list$ ))(and (= (size$ ?v2 )?v0 )(forall ((?v3 Nat$ ))(=> (less$ ?v3 ?v0 )(fun_app$b (fun_app$c ?v1 ?v3 )(nth$ ?v2 ?v3 )))))))):named a5 ))
(assert (! (forall ((?v0 A_list_list$ )(?v1 A_list_list$ ))(=> (and (= (size$a ?v0 )(size$a ?v1 ))(forall ((?v2 Nat$ ))(=> (less$ ?v2 (size$a ?v0 ))(= (nth$a ?v0 ?v2 )(nth$a ?v1 ?v2 )))))(= ?v0 ?v1 ))):named a6 ))
(assert (! (forall ((?v0 A_list$ )(?v1 A_list$ ))(=> (and (= (size$ ?v0 )(size$ ?v1 ))(forall ((?v2 Nat$ ))(=> (less$ ?v2 (size$ ?v0 ))(= (nth$ ?v0 ?v2 )(nth$ ?v1 ?v2 )))))(= ?v0 ?v1 ))):named a7 ))
(assert (! (not (less$ y$ (size$ (shd$ sa$ )))):named a8 ))
(assert (! (forall ((?v0 A_list_list_bool_fun$ )(?v1 A_list_list$ ))(=> (forall ((?v2 A_list_list$ ))(=> (forall ((?v3 A_list_list$ ))(=> (less$ (size$a ?v3 )(size$a ?v2 ))(fun_app$d ?v0 ?v3 )))(fun_app$d ?v0 ?v2 )))(fun_app$d ?v0 ?v1 ))):named a9 ))
(assert (! (forall ((?v0 A_list_bool_fun$ )(?v1 A_list$ ))(=> (forall ((?v2 A_list$ ))(=> (forall ((?v3 A_list$ ))(=> (less$ (size$ ?v3 )(size$ ?v2 ))(fun_app$ ?v0 ?v3 )))(fun_app$ ?v0 ?v2 )))(fun_app$ ?v0 ?v1 ))):named a10 ))
(assert (! (forall ((?v0 Nat$ )(?v1 A_list_list$ )(?v2 A_list_stream$ ))(=> (less$ ?v0 (size$a ?v1 ))(= (snth$ (shift$ ?v1 ?v2 )?v0 )(nth$a ?v1 ?v0 )))):named a11 ))
(assert (! (forall ((?v0 Nat$ )(?v1 A_list$ )(?v2 A_stream$ ))(=> (less$ ?v0 (size$ ?v1 ))(= (snth$a (shift$a ?v1 ?v2 )?v0 )(nth$ ?v1 ?v0 )))):named a12 ))
(assert (! (= x$ (snth$a (flat$ sa$ )y$ )):named a13 ))
(assert (! (forall ((?v0 A_list_list$ )(?v1 A_list_list$ ))(=> (not (= (size$a ?v0 )(size$a ?v1 )))(= (= ?v0 ?v1 )false ))):named a14 ))
(assert (! (forall ((?v0 A_list$ )(?v1 A_list$ ))(=> (not (= (size$ ?v0 )(size$ ?v1 )))(= (= ?v0 ?v1 )false ))):named a15 ))
(assert (! (forall ((?v0 Nat$ ))(exists ((?v1 A_list_list$ ))(= (size$a ?v1 )?v0 ))):named a16 ))
(assert (! (forall ((?v0 Nat$ ))(exists ((?v1 A_list$ ))(= (size$ ?v1 )?v0 ))):named a17 ))
(assert (! (forall ((?v0 A_list_list$ )(?v1 A_list_list$ ))(=> (not (= (size$a ?v0 )(size$a ?v1 )))(not (= ?v0 ?v1 )))):named a18 ))
(assert (! (forall ((?v0 A_list$ )(?v1 A_list$ ))(=> (not (= (size$ ?v0 )(size$ ?v1 )))(not (= ?v0 ?v1 )))):named a19 ))
(assert (! (forall ((?v0 Nat$ )(?v1 Nat$ ))(= (not (= ?v0 ?v1 ))(or (less$ ?v0 ?v1 )(less$ ?v1 ?v0 )))):named a20 ))
(assert (! (forall ((?v0 Nat$ )(?v1 Nat$ )(?v2 Nat_nat_bool_fun_fun$ ))(=> (and (=> (less$ ?v0 ?v1 )(fun_app$e (fun_app$f ?v2 ?v1 )?v0 ))(and (=> (= ?v0 ?v1 )(fun_app$e (fun_app$f ?v2 ?v1 )?v0 ))(=> (less$ ?v1 ?v0 )(fun_app$e (fun_app$f ?v2 ?v1 )?v0 ))))(fun_app$e (fun_app$f ?v2 ?v1 )?v0 ))):named a21 ))
(assert (! (forall ((?v0 A_list$ )(?v1 A_stream$ )(?v2 A_stream$ ))(= (= (shift$a ?v0 ?v1 )(shift$a ?v0 ?v2 ))(= ?v1 ?v2 ))):named a22 ))
(assert (! (forall ((?v0 A_list_list$ )(?v1 A_list_stream$ )(?v2 A_list_stream$ ))(= (= (shift$ ?v0 ?v1 )(shift$ ?v0 ?v2 ))(= ?v1 ?v2 ))):named a23 ))
(assert (! (= x$ (snth$a (flat$ s$ )m$ )):named a24 ))
(assert (! (=> (forall ((?v0 Nat$ ))(=> (= x$ (snth$a (flat$ s$ )?v0 ))false ))false ):named a25 ))
(assert (! (forall ((?v0 A_list_stream$ )(?v1 A_list_stream$ ))(=> (and (= (shd$ ?v0 )(shd$ ?v1 ))(= (stl$ ?v0 )(stl$ ?v1 )))(= ?v0 ?v1 ))):named a26 ))
(check-sat )
;(get-unsat-core )
